p cnf 127 415
-1 -33 0
-2 -33 0
1 2 33 0
1 2 -34 0
-1 -2 -34 0
-1 2 34 0
1 -2 34 0
33 -35 0
-3 -35 0
3 -33 35 0
3 -33 -36 0
-3 33 -36 0
3 33 36 0
-3 -33 36 0
35 -37 0
-4 -37 0
4 -35 37 0
4 -35 -38 0
-4 35 -38 0
4 35 38 0
-4 -35 38 0
37 -39 0
-5 -39 0
5 -37 39 0
5 -37 -40 0
-5 37 -40 0
5 37 40 0
-5 -37 40 0
39 -41 0
-6 -41 0
6 -39 41 0
6 -39 -42 0
-6 39 -42 0
6 39 42 0
-6 -39 42 0
41 -43 0
-7 -43 0
7 -41 43 0
7 -41 -44 0
-7 41 -44 0
7 41 44 0
-7 -41 44 0
43 -45 0
-8 -45 0
8 -43 45 0
8 -43 -46 0
-8 43 -46 0
8 43 46 0
-8 -43 46 0
-1 -47 0
-2 -47 0
1 2 47 0
1 2 -48 0
-1 -2 -48 0
-1 2 48 0
1 -2 48 0
47 -49 0
-3 -49 0
3 -47 49 0
3 -47 -50 0
-3 47 -50 0
3 47 50 0
-3 -47 50 0
49 -51 0
-4 -51 0
4 -49 51 0
4 -49 -52 0
-4 49 -52 0
4 49 52 0
-4 -49 52 0
51 -53 0
-5 -53 0
5 -51 53 0
5 -51 -54 0
-5 51 -54 0
5 51 54 0
-5 -51 54 0
53 -55 0
-6 -55 0
6 -53 55 0
6 -53 -56 0
-6 53 -56 0
6 53 56 0
-6 -53 56 0
55 -57 0
-7 -57 0
7 -55 57 0
7 -55 -58 0
-7 55 -58 0
7 55 58 0
-7 -55 58 0
57 -59 0
-8 -59 0
8 -57 59 0
8 -57 -60 0
-8 57 -60 0
8 57 60 0
-8 -57 60 0
-9 -61 0
-10 -61 0
9 10 61 0
9 10 -62 0
-9 -10 -62 0
-9 10 62 0
9 -10 62 0
61 -63 0
-11 -63 0
11 -61 63 0
11 -61 -64 0
-11 61 -64 0
11 61 64 0
-11 -61 64 0
63 -65 0
-12 -65 0
12 -63 65 0
12 -63 -66 0
-12 63 -66 0
12 63 66 0
-12 -63 66 0
65 -67 0
-13 -67 0
13 -65 67 0
13 -65 -68 0
-13 65 -68 0
13 65 68 0
-13 -65 68 0
67 -69 0
-14 -69 0
14 -67 69 0
14 -67 -70 0
-14 67 -70 0
14 67 70 0
-14 -67 70 0
69 -71 0
-15 -71 0
15 -69 71 0
15 -69 -72 0
-15 69 -72 0
15 69 72 0
-15 -69 72 0
71 -73 0
-16 -73 0
16 -71 73 0
16 -71 -74 0
-16 71 -74 0
16 71 74 0
-16 -71 74 0
11 -75 0
9 -75 0
-9 -11 75 0
-9 -11 -76 0
9 11 -76 0
9 -11 76 0
-9 11 76 0
-10 -12 77 0
-12 -75 77 0
-10 -75 77 0
10 12 -77 0
12 75 -77 0
10 75 -77 0
12 -77 -78 0
10 -77 -78 0
75 -77 -78 0
-12 77 78 0
-10 77 78 0
-75 77 78 0
-10 -12 -75 78 0
10 12 75 -78 0
-11 -13 79 0
-13 -77 79 0
-11 -77 79 0
11 13 -79 0
13 77 -79 0
11 77 -79 0
13 -79 -80 0
11 -79 -80 0
77 -79 -80 0
-13 79 80 0
-11 79 80 0
-77 79 80 0
-11 -13 -77 80 0
11 13 77 -80 0
-12 -14 81 0
-14 -79 81 0
-12 -79 81 0
12 14 -81 0
14 79 -81 0
12 79 -81 0
14 -81 -82 0
12 -81 -82 0
79 -81 -82 0
-14 81 82 0
-12 81 82 0
-79 81 82 0
-12 -14 -79 82 0
12 14 79 -82 0
-13 -15 83 0
-15 -81 83 0
-13 -81 83 0
13 15 -83 0
15 81 -83 0
13 81 -83 0
15 -83 -84 0
13 -83 -84 0
81 -83 -84 0
-15 83 84 0
-13 83 84 0
-81 83 84 0
-13 -15 -81 84 0
13 15 81 -84 0
-14 -16 85 0
-16 -83 85 0
-14 -83 85 0
14 16 -85 0
16 83 -85 0
14 83 -85 0
16 -85 -86 0
14 -85 -86 0
83 -85 -86 0
-16 85 86 0
-14 85 86 0
-83 85 86 0
-14 -16 -83 86 0
14 16 83 -86 0
15 -87 0
85 -87 0
-15 -85 87 0
-15 -85 -88 0
15 85 -88 0
-15 85 88 0
15 -85 88 0
16 -89 0
87 -89 0
-16 -87 89 0
-16 -87 -90 0
16 87 -90 0
-16 87 90 0
16 -87 90 0
-9 -91 0
-10 -91 0
9 10 91 0
9 10 -92 0
-9 -10 -92 0
-9 10 92 0
9 -10 92 0
91 -93 0
-76 -93 0
76 -91 93 0
76 -91 -94 0
-76 91 -94 0
76 91 94 0
-76 -91 94 0
93 -95 0
-78 -95 0
78 -93 95 0
78 -93 -96 0
-78 93 -96 0
78 93 96 0
-78 -93 96 0
95 -97 0
-80 -97 0
80 -95 97 0
80 -95 -98 0
-80 95 -98 0
80 95 98 0
-80 -95 98 0
97 -99 0
-82 -99 0
82 -97 99 0
82 -97 -100 0
-82 97 -100 0
82 97 100 0
-82 -97 100 0
99 -101 0
-84 -101 0
84 -99 101 0
84 -99 -102 0
-84 99 -102 0
84 99 102 0
-84 -99 102 0
101 -103 0
-86 -103 0
86 -101 103 0
86 -101 -104 0
-86 101 -104 0
86 101 104 0
-86 -101 104 0
103 -105 0
-88 -105 0
88 -103 105 0
88 -103 -106 0
-88 103 -106 0
88 103 106 0
-88 -103 106 0
105 -107 0
-90 -107 0
90 -105 107 0
90 -105 -108 0
-90 105 -108 0
90 105 108 0
-90 -105 108 0
107 -109 0
-89 -109 0
89 -107 109 0
89 -107 -110 0
-89 107 -110 0
89 107 110 0
-89 -107 110 0
1 -111 0
82 -111 0
-1 -82 111 0
-1 -82 -112 0
1 82 -112 0
-1 82 112 0
1 -82 112 0
-2 -84 113 0
-2 -111 113 0
-84 -111 113 0
2 84 -113 0
2 111 -113 0
84 111 -113 0
2 -113 -114 0
84 -113 -114 0
111 -113 -114 0
-2 113 114 0
-84 113 114 0
-111 113 114 0
-2 -84 -111 114 0
2 84 111 -114 0
-3 -86 115 0
-3 -113 115 0
-86 -113 115 0
3 86 -115 0
3 113 -115 0
86 113 -115 0
3 -115 -116 0
86 -115 -116 0
113 -115 -116 0
-3 115 116 0
-86 115 116 0
-113 115 116 0
-3 -86 -113 116 0
3 86 113 -116 0
-4 -88 117 0
-4 -115 117 0
-88 -115 117 0
4 88 -117 0
4 115 -117 0
88 115 -117 0
4 -117 -118 0
88 -117 -118 0
115 -117 -118 0
-4 117 118 0
-88 117 118 0
-115 117 118 0
-4 -88 -115 118 0
4 88 115 -118 0
-5 -90 119 0
-5 -117 119 0
-90 -117 119 0
5 90 -119 0
5 117 -119 0
90 117 -119 0
5 -119 -120 0
90 -119 -120 0
117 -119 -120 0
-5 119 120 0
-90 119 120 0
-117 119 120 0
-5 -90 -117 120 0
5 90 117 -120 0
-6 -89 121 0
-6 -119 121 0
-89 -119 121 0
6 89 -121 0
6 119 -121 0
89 119 -121 0
6 -121 -122 0
89 -121 -122 0
119 -121 -122 0
-6 121 122 0
-89 121 122 0
-119 121 122 0
-6 -89 -119 122 0
6 89 119 -122 0
7 -123 0
121 -123 0
-7 -121 123 0
-7 -121 -124 0
7 121 -124 0
-7 121 124 0
7 -121 124 0
8 -125 0
123 -125 0
-8 -123 125 0
-8 -123 -126 0
8 123 -126 0
-8 123 126 0
8 -123 126 0
-9 -127 0
-10 -127 0
-76 -127 0
78 -127 0
80 -127 0
112 -127 0
114 -127 0
116 -127 0
-118 -127 0
-120 -127 0
-122 -127 0
-124 -127 0
-125 -127 0
-126 -127 0
9 10 76 -78 -80 -112 -114 -116 118 120 122 124 125 126 127 0
127 0
c main::$tmp::return_value_nondet_char!0@1#1 17 18 19 20 21 22 23 24
c symex::nondet1 9 10 11 12 13 14 15 16
c symex::nondet0 1 2 3 4 5 6 7 8
c main::$tmp::return_value_nondet_char$0!0@1#2 9 10 11 12 13 14 15 16
c __CPROVER_rounding_mode!0#1 FALSE FALSE FALSE FALSE FALSE FALSE FALSE FALSE FALSE FALSE FALSE FALSE FALSE FALSE FALSE FALSE FALSE FALSE FALSE FALSE FALSE FALSE FALSE FALSE FALSE FALSE FALSE FALSE FALSE FALSE FALSE FALSE
c main::$tmp::return_value_nondet_char$0!0@1#1 25 26 27 28 29 30 31 32
c __CPROVER_memory_leak#1 FALSE FALSE FALSE FALSE FALSE FALSE FALSE FALSE FALSE FALSE FALSE FALSE FALSE FALSE FALSE FALSE FALSE FALSE FALSE FALSE FALSE FALSE FALSE FALSE FALSE FALSE FALSE FALSE FALSE FALSE FALSE FALSE FALSE FALSE FALSE FALSE FALSE FALSE FALSE FALSE FALSE FALSE FALSE FALSE FALSE FALSE FALSE FALSE FALSE FALSE FALSE FALSE FALSE FALSE FALSE FALSE FALSE FALSE FALSE FALSE FALSE FALSE FALSE FALSE
c __CPROVER_max_malloc_size#1 FALSE FALSE FALSE FALSE FALSE FALSE FALSE FALSE FALSE FALSE FALSE FALSE FALSE FALSE FALSE FALSE FALSE FALSE FALSE FALSE FALSE FALSE FALSE FALSE FALSE FALSE FALSE FALSE FALSE FALSE FALSE FALSE FALSE FALSE FALSE FALSE FALSE FALSE FALSE FALSE FALSE FALSE FALSE FALSE FALSE FALSE FALSE FALSE FALSE FALSE FALSE FALSE FALSE FALSE FALSE TRUE FALSE FALSE FALSE FALSE FALSE FALSE FALSE FALSE
c __CPROVER_deallocated#1 FALSE FALSE FALSE FALSE FALSE FALSE FALSE FALSE FALSE FALSE FALSE FALSE FALSE FALSE FALSE FALSE FALSE FALSE FALSE FALSE FALSE FALSE FALSE FALSE FALSE FALSE FALSE FALSE FALSE FALSE FALSE FALSE FALSE FALSE FALSE FALSE FALSE FALSE FALSE FALSE FALSE FALSE FALSE FALSE FALSE FALSE FALSE FALSE FALSE FALSE FALSE FALSE FALSE FALSE FALSE FALSE FALSE FALSE FALSE FALSE FALSE FALSE FALSE FALSE
c main::$tmp::return_value_nondet_char!0@1#2 1 2 3 4 5 6 7 8
c __CPROVER_dead_object#1 FALSE FALSE FALSE FALSE FALSE FALSE FALSE FALSE FALSE FALSE FALSE FALSE FALSE FALSE FALSE FALSE FALSE FALSE FALSE FALSE FALSE FALSE FALSE FALSE FALSE FALSE FALSE FALSE FALSE FALSE FALSE FALSE FALSE FALSE FALSE FALSE FALSE FALSE FALSE FALSE FALSE FALSE FALSE FALSE FALSE FALSE FALSE FALSE FALSE FALSE FALSE FALSE FALSE FALSE FALSE FALSE FALSE FALSE FALSE FALSE FALSE FALSE FALSE FALSE
